; benchmark generated from python API
(set-info :status unknown)
(declare-fun A_3 () Real)
(declare-fun S_4 () Real)
(declare-fun S_3 () Real)
(declare-fun S_1 () Real)
(declare-fun L_1 () Real)
(declare-fun S_0 () Real)
(declare-fun A_0 () Real)
(declare-fun L_0 () Real)
(declare-fun S_2 () Real)
(declare-fun A_4 () Real)
(declare-fun L_2 () Real)
(declare-fun L0 () Real)
(declare-fun A_1 () Real)
(declare-fun L_3 () Real)
(declare-fun A_2 () Real)
(assert
 (let (($x16338 (<= (+ S_1 (* (- 1.0) S_3)) (- 5.0))))
 (let (($x2428 (<= (+ L_0 (* 2.0 S_1) (* (- 1.0) S_3) (* (- 1.0) A_0)) 0.0)))
 (let (($x16344 (<= (+ (* 2.0 S_1) (* (- 3.0) S_3) S_4) 0.0)))
 (let (($x2459 (<= (+ L_1 (* (- 1.0) A_3) S_4 (* (- (/ 1.0 2.0)) S_3) (* (/ 1.0 2.0) S_0)) 0.0)))
 (let (($x6619 (<= (+ L_2 (* (- 1.0) A_4) S_4) 0.0)))
 (let (($x37 (>= L0 0.0)))
 (let (($x1095 (<= (+ (* (- 1.0) A_0) L_0 S_0) 0.0)))
 (let (($x6700 (<= (+ (* (- 1.0) L_1) A_3 (* (- 1.0) S_4)) 0.0)))
 (let (($x3875 (or $x6700 (<= (+ (* (- 1.0) S_1) (* (- 2.0) S_4) (* 3.0 S_2)) 0.0))))
 (let ((?x240 (* (- 1.0) S_1)))
 (let ((?x522 (* (- 1.0) A_3)))
 (let ((?x507 (* (- 1.0) L_1)))
 (let (($x74 (= L_3 L_2)))
 (let ((?x936 (* (- 1.0) S_0)))
 (let ((?x5333 (* (- (/ 5.0 2.0)) A_3)))
 (let ((?x2108 (* (- (/ 5.0 2.0)) L_1)))
 (let ((?x4227 (* (/ 5.0 2.0) A_1)))
 (let ((?x9910 (* (/ 5.0 2.0) L_3)))
 (let ((?x503 (* (- 1.0) S_3)))
 (let ((?x9997 (* (/ 1.0 2.0) A_3)))
 (let ((?x7732 (* (/ 1.0 2.0) L_1)))
 (let ((?x8487 (* (- (/ 1.0 2.0)) A_1)))
 (let ((?x7143 (* (- (/ 1.0 2.0)) L_3)))
 (let (($x54 (= L_1 L_0)))
 (let (($x2514 (<= (+ (* (- 1.0) L_3) (* (- 1.0) A_1) L_1 A_3 ?x503 S_0) 0.0)))
 (let (($x1899 (or $x54 (<= (+ ?x7143 ?x8487 ?x7732 ?x9997 S_2 (* (- 1.0) S_4)) 0.0))))
 (let ((?x3989 (* (- (/ 3.0 2.0)) A_3)))
 (let ((?x3067 (* (- (/ 3.0 2.0)) L_1)))
 (let ((?x3091 (* (/ 3.0 2.0) A_1)))
 (let ((?x845 (* (/ 3.0 2.0) L_3)))
 (let (($x9807 (or $x74 (<= (+ L_3 A_1 ?x507 ?x522 (* (- 1.0) A_0) L_0 S_2) 0.0))))
 (let ((?x1750 (* (- 2.0) A_3)))
 (let ((?x4761 (* (- 2.0) L_1)))
 (let ((?x905 (* 2.0 A_1)))
 (let ((?x1793 (* 2.0 L_3)))
 (let (($x6142 (<= (+ L_0 (* (- 2.0) S_4) (* 3.0 S_2) (* (- 1.0) A_0)) 0.0)))
 (let ((?x943 (* (- 5.0) A_2)))
 (let ((?x1789 (* 5.0 L_2)))
 (let ((?x1855 (* (- 5.0) L_1)))
 (let ((?x6647 (* 5.0 A_1)))
 (let (($x64 (= L_2 L_1)))
 (let (($x5843 (<= (+ ?x905 ?x4761 (* 2.0 L_2) (* (- 2.0) A_2) S_2 ?x240) 0.0)))
 (let ((?x1093 (* (- 1.0) A_0)))
 (let ((?x2492 (* (- 2.0) A_2)))
 (let ((?x7851 (* 2.0 L_2)))
 (let ((?x2520 (* (- 3.0) A_2)))
 (let ((?x981 (* 3.0 L_2)))
 (let ((?x1447 (* (- 3.0) L_1)))
 (let ((?x1488 (* 3.0 A_1)))
 (let (($x5131 (<= (+ (* (- 1.0) A_1) L_1 (* (- 1.0) L_2) A_2 ?x503 S_1) 0.0)))
 (let (($x3040 (<= (+ (* 2.0 A_3) (* (- 2.0) L_3) ?x7851 ?x2492 ?x503 S_0) 0.0)))
 (let (($x8982 (<= (+ ?x1750 ?x1793 (* (- 2.0) L_2) (* 2.0 A_2) ?x503 S_4) 0.0)))
 (let (($x9234 (<= (+ A_3 (* (- 1.0) L_3) ?x7851 ?x2492 A_1 (* (- 1.0) L_0)) 0.0)))
 (let (($x1720 (= L_2 L_0)))
 (let (($x1267 (not (= L_0 L_1))))
 (let (($x1304 (not (= L_2 L_3))))
 (let ((?x281 (* (- 1.0) S_2)))
 (let ((?x9511 (* 3.0 A_2)))
 (let ((?x3189 (* (- 3.0) L_2)))
 (let ((?x9523 (* 3.0 L_3)))
 (let ((?x10144 (* (- 3.0) A_3)))
 (let ((?x497 (* (- 1.0) S_4)))
 (let ((?x6639 (* (/ 3.0 2.0) A_3)))
 (let ((?x917 (* (/ 3.0 2.0) L_1)))
 (let ((?x916 (* (- (/ 3.0 2.0)) A_1)))
 (let ((?x915 (* (- (/ 3.0 2.0)) L_3)))
 (let ((?x4233 (* (- (/ 1.0 2.0)) A_3)))
 (let ((?x3773 (* (- (/ 1.0 2.0)) L_1)))
 (let ((?x5817 (* (/ 1.0 2.0) A_1)))
 (let ((?x2877 (* (/ 1.0 2.0) L_3)))
 (let (($x12040 (or $x6700 (<= (+ L_0 (* (/ 3.0 2.0) S_1) (* (- (/ 1.0 2.0)) S_4) ?x1093) 0.0))))
 (let (($x3241 (<= (+ L_1 (* (- 1.0) A_1) (* (- 1.0) L_3) A_3 S_1 ?x497) 0.0)))
 (let (($x16782 (or $x54 $x3241)))
 (let (($x4286 (<= (+ (* (- 1.0) A_1) L_1 (* (- 1.0) L_2) A_2 ?x281 S_0) 0.0)))
 (let (($x9979 (or $x64 (>= (+ (* (- 1.0) A_1) L_1 (* (- 1.0) L_2) A_2) 5.0))))
 (let ((?x5562 (* (- 4.0) A_2)))
 (let ((?x5524 (* 4.0 L_2)))
 (let ((?x5253 (* (- 4.0) L_1)))
 (let ((?x3239 (* 4.0 A_1)))
 (let (($x1064 (not (<= 0.0 (+ L_1 (* (- 1.0) L_2))))))
 (let (($x2243 (or $x64 (<= (+ A_1 ?x507 L_2 (* (- 1.0) A_2) L_0 ?x1093 S_1) 0.0))))
 (let ((?x997 (* 2.0 A_2)))
 (let ((?x1798 (* (- 2.0) L_2)))
 (let ((?x970 (* 2.0 L_1)))
 (let ((?x2884 (* (- 2.0) A_1)))
 (let (($x1384 (or $x1267 $x1720 (<= (+ ?x905 (* (- 2.0) L_0) ?x7851 ?x2492 S_1 ?x936) 0.0))))
 (let (($x3236 (not (= L_1 L_2))))
 (let (($x6782 (<= (+ A_3 (* (- 1.0) L_3) L_2 (* (- 1.0) A_2) ?x503 S_1) 0.0)))
 (let ((?x4257 (* 5.0 A_2)))
 (let ((?x1486 (* (- 5.0) L_2)))
 (let ((?x931 (* 5.0 L_3)))
 (let ((?x1394 (* (- 5.0) A_3)))
 (let (($x3424 (or $x54 $x64 $x74 (= (+ ?x507 A_1 A_3 (* (- 1.0) L_3) ?x7851 ?x2492) 0.0))))
 (let ((?x4673 (* 4.0 A_2)))
 (let ((?x1820 (* (- 4.0) L_2)))
 (let ((?x1335 (* 4.0 L_3)))
 (let ((?x4396 (* (- 4.0) A_3)))
 (let (($x1553 (or $x74 (>= (+ A_3 (* (- 1.0) L_3) L_2 (* (- 1.0) A_2)) 5.0))))
 (let (($x3009 (or $x74 (<= (+ ?x522 L_3 (* (- 1.0) L_2) A_2 L_0 ?x1093 S_1) 0.0))))
 (let (($x8171 (<= (+ A_3 (* (- 1.0) L_3) L_2 (* (- 1.0) A_2) ?x281 S_0) 0.0)))
 (let (($x1326 (or $x74 (not (<= 0.0 (+ L_2 (* (- 1.0) L_3)))))))
 (let (($x1678 (or $x54 (not (<= 0.0 (+ ?x507 L_0))))))
 (let (($x390 (<= (+ A_0 (* (- 1.0) L_0)) S_3)))
 (let (($x2083 (or $x64 $x1064)))
 (let (($x545 (<= (+ A_2 (* (- 1.0) L_2)) S_4)))
 (let (($x125 (>= A_4 A_3)))
 (let (($x896 (not (<= (+ A_1 ?x507) S_3))))
 (let (($x124 (>= A_3 A_2)))
 (let (($x123 (>= A_2 A_1)))
 (let (($x117 (>= S_3 S_2)))
 (let (($x114 (>= S_2 S_1)))
 (let (($x111 (>= S_1 S_0)))
 (let (($x36 (>= L_0 L0)))
 (and $x36 $x111 $x114 $x117 $x123 $x124 $x896 $x125 $x545 $x2083 $x390 $x1678 $x1326 (or $x64 $x8171) (or $x74 (<= (+ L_3 A_1 ?x507 ?x522 S_3 ?x281) 0.0)) (or $x74 (<= (+ ?x1750 ?x1793 ?x1798 ?x997 S_1 ?x936) 0.0)) $x3009 (or $x74 (<= (+ ?x10144 ?x9523 ?x3189 ?x9511 S_2 ?x936) 0.0)) (or $x74 (<= (+ ?x1750 ?x1793 ?x1798 ?x997 S_2 ?x240) 0.0)) (or $x74 (<= (+ ?x4396 ?x1335 ?x1820 ?x4673 ?x1093 L_0 S_4) 0.0)) (or $x54 (<= (+ ?x7143 ?x8487 ?x7732 ?x9997 ?x281 S_0) 0.0)) $x1553 (or $x74 (<= (+ ?x4396 ?x1335 ?x1820 ?x4673 ?x240 S_4) 0.0)) (or $x54 $x3236 (<= (+ (* (- 1.0) A_1) A_2 ?x281 S_0) 0.0)) (or $x54 $x3236 (<= (+ ?x2884 ?x997 ?x503 S_0) 0.0)) $x3424 (or $x74 (<= (+ ?x1394 ?x931 ?x1486 ?x4257 ?x936 S_4) 0.0)) (or $x64 $x6782) (or $x74 (<= (+ ?x1750 ?x1793 ?x1798 ?x997 ?x1093 L_0 S_2) 0.0)) (or $x54 $x3236 (<= (+ (* (- 1.0) A_1) A_2 ?x503 S_1) 0.0)) (or $x74 (<= (+ L_3 A_1 ?x507 ?x522 ?x503 S_4) 0.0)) $x1384 (or $x64 (<= (+ ?x905 ?x4761 ?x7851 ?x2492 ?x503 S_4) 0.0)) (or $x64 (<= (+ ?x3239 ?x5253 ?x5524 ?x5562 ?x1093 L_0 S_4) 0.0)) (or $x64 (<= (+ ?x1488 ?x1447 ?x981 ?x2520 ?x281 S_4) 0.0)) (or $x54 (<= (+ ?x2884 ?x970 ?x1798 ?x997 ?x503 S_0) 0.0)) $x2243 (or $x54 $x74 $x1064 (<= (+ ?x2877 ?x8487 ?x3773 ?x4233 A_2) 0.0)) (or $x74 (<= (+ ?x1793 ?x905 ?x4761 ?x1750 ?x240 S_4) 0.0)) (or $x64 (<= (+ ?x3239 ?x5253 ?x5524 ?x5562 ?x240 S_4) 0.0)) $x9979 (or $x54 $x4286) $x16782 $x12040 (or $x6700 (<= (+ (* (/ 1.0 2.0) S_1) (* (- (/ 1.0 2.0)) S_4)) (- 5.0))) (or $x74 (<= (+ ?x845 ?x3091 ?x3067 ?x3989 ?x281 S_4) 0.0)) (or $x74 (<= (+ ?x1793 ?x905 ?x4761 ?x1750 ?x1093 L_0 S_4) 0.0)) (or $x74 (<= (+ ?x2877 ?x5817 ?x3773 ?x4233 L_0 ?x1093 S_1) 0.0)) (or $x74 (>= (+ ?x7143 ?x8487 ?x7732 ?x9997) 5.0)) (or $x6700 (<= (+ (* (/ 1.0 3.0) S_0) (* (- (/ 1.0 3.0)) S_4)) (- 5.0))) (or $x54 (<= (+ ?x915 ?x916 ?x917 ?x6639 S_0 ?x497) 0.0)) (or $x74 (<= (+ ?x10144 ?x9523 ?x3189 ?x9511 ?x281 S_4) 0.0)) (or $x1304 $x64 (<= (+ A_1 ?x507 L_2 ?x2492 A_3) 0.0)) (or $x1267 $x1720 $x9234) (or $x74 (<= (+ ?x845 ?x3091 ?x3067 ?x3989 L_0 S_3 ?x1093) 0.0)) (or $x74 (<= (+ ?x845 ?x3091 ?x3067 ?x3989 S_3 ?x240) 0.0)) (or $x74 $x8982) (or $x64 $x3040) (or $x54 $x5131) (or $x64 (<= (+ ?x905 ?x4761 ?x7851 ?x2492 S_1 ?x936) 0.0)) (or $x64 (<= (+ ?x1488 ?x1447 ?x981 ?x2520 S_2 ?x936) 0.0)) (or $x64 (<= (+ ?x905 ?x4761 ?x7851 ?x2492 ?x1093 L_0 S_2) 0.0)) (or $x64 $x5843) (or $x64 (<= (+ ?x6647 ?x1855 ?x1789 ?x943 ?x936 S_4) 0.0)) (or $x6700 (<= (+ (* 2.0 S_1) ?x497 ?x936) 0.0)) (or $x6700 $x6142) (or $x6700 (<= (+ (* (- 3.0) S_4) (* 4.0 S_2) ?x936) 0.0)) (or $x74 (<= (+ ?x1793 ?x905 ?x4761 ?x1750 S_3 ?x936) 0.0)) $x9807 (or $x74 (<= (+ ?x845 ?x3091 ?x3067 ?x3989 S_2 ?x936) 0.0)) $x1899 (or $x54 $x2514) (or $x54 (<= (+ ?x7143 ?x8487 ?x7732 ?x9997 ?x503 S_1) 0.0)) (or $x74 (<= (+ L_3 A_1 ?x507 ?x522 S_1 ?x936) 0.0)) (or $x74 (<= (+ ?x9910 ?x4227 ?x2108 ?x5333 ?x936 S_4) 0.0)) (or $x6700 (<= (+ ?x497 S_2) (- 5.0))) (or $x74 (<= (+ L_3 A_1 ?x507 ?x522 S_2 ?x240) 0.0)) $x3875 $x1095 $x37 $x6619 (<= (+ ?x281 S_0) (- 5.0)) (<= (+ (* (- 4.0) S_2) S_4 (* 3.0 S_0)) 0.0) (<= (+ (* (- (/ 1.0 2.0)) S_3) (* (/ 1.0 2.0) S_0)) (- 5.0)) (<= (+ (* (- 3.0) S_2) S_3 (* 2.0 S_0)) 0.0) (<= (+ S_4 (* (- 2.0) S_3) S_0) 0.0) $x2459 (<= (+ L_1 ?x522 S_4 ?x281 S_0) 0.0) $x16344 $x2428 $x16338 (<= (+ (* 3.0 S_1) (* (- 2.0) S_3) ?x936) 0.0) (<= (+ L_1 S_1 ?x503 S_4 ?x522) 0.0))))))))))))))))))))))))))))))))))))))))))))))))))))))))))))))))))))))))))))))))))))))))))))))))))))))))))))))))))))
(check-sat)
